0 3074 7626 7352 5405 2000 6861 6908 3554
7811 0 6642 6450 2000 3084 2696 7249 3674
2730 2000 0 5756 4809 2649 5551 2862 2764
5189 7087 2000 0 6530 2153 2123 5336 2549
2000 3948 7902 2000 0 3438 2857 2631 3659
5182 2794 6805 2106 6082 0 2000 6653 7594
6276 7908 4224 3972 4806 2736 0 2000 7245
4818 3613 2493 6576 3354 6530 7899 0 2000
3578 2559 2555 2000 3166 5654 3135 4429 0
